\ This file has been generated by DOcplex
\ ENCODING=ISO-8859-1
\Problem name: AMC Quadratic Optimization

Maximize
 obj: 3 x2 - 6 x3 + [ 4 x1*x3 ]/2
Subject To
 c1: x1 + 2 x2 - x3 <= 3
 c2: x1 + x2 + x3 >= 2
 c3: x2 - x3 <= 1

Bounds
 0 <= x1 <= 1
 0 <= x2 <= 1
 0 <= x3 <= 1

Binaries
 x1 x2 x3
End
